NAME          
ROWS
 N  OBJ
 L  c1
 L  c2
 L  c3
COLUMNS
    MARKER    'MARKER'                 'INTORG'
    x[1]      c1        892
    x[1]      c2        177
    x[1]      c3        245
    x[1]      OBJ       -610
    x[2]      c1        542
    x[2]      c2        600
    x[2]      c3        858
    x[2]      OBJ       -867
    x[3]      c1        416
    x[3]      c2        931
    x[3]      c3        255
    x[3]      OBJ       -432
    x[4]      c1        433
    x[4]      c2        869
    x[4]      c3        236
    x[4]      OBJ       -341
    x[5]      c1        251
    x[5]      c2        154
    x[5]      c3        419
    x[5]      OBJ       -268
    x[6]      c1        283
    x[6]      c2        879
    x[6]      c3        91
    x[6]      OBJ       -359
    x[7]      c1        341
    x[7]      c2        184
    x[7]      c3        627
    x[7]      OBJ       -782
    x[8]      c1        711
    x[8]      c2        583
    x[8]      c3        782
    x[8]      OBJ       -925
    x[9]      c1        969
    x[9]      c2        264
    x[9]      c3        73
    x[9]      OBJ       -696
    x[10]     c1        726
    x[10]     c2        987
    x[10]     c3        366
    x[10]     OBJ       -894
    x[11]     c1        197
    x[11]     c2        419
    x[11]     c3        891
    x[11]     OBJ       -562
    x[12]     c1        17
    x[12]     c2        271
    x[12]     c3        702
    x[12]     OBJ       -57
    x[13]     c1        428
    x[13]     c2        458
    x[13]     c3        298
    x[13]     OBJ       -651
    x[14]     c1        64
    x[14]     c2        632
    x[14]     c3        372
    x[14]     OBJ       -653
    x[15]     c1        271
    x[15]     c2        13
    x[15]     c3        37
    x[15]     OBJ       -583
    x[16]     c1        511
    x[16]     c2        968
    x[16]     c3        909
    x[16]     OBJ       -909
    x[17]     c1        740
    x[17]     c2        450
    x[17]     c3        444
    x[17]     OBJ       -511
    x[18]     c1        399
    x[18]     c2        26
    x[18]     c3        589
    x[18]     OBJ       -528
    x[19]     c1        455
    x[19]     c2        420
    x[19]     c3        595
    x[19]     OBJ       -592
    x[20]     c1        930
    x[20]     c2        476
    x[20]     c3        473
    x[20]     OBJ       -181
    x[21]     c1        202
    x[21]     c2        731
    x[21]     c3        452
    x[21]     OBJ       -278
    x[22]     c1        94
    x[22]     c2        738
    x[22]     c3        837
    x[22]     OBJ       -340
    x[23]     c1        24
    x[23]     c2        244
    x[23]     c3        107
    x[23]     OBJ       -105
    x[24]     c1        528
    x[24]     c2        64
    x[24]     c3        321
    x[24]     OBJ       -673
    x[25]     c1        125
    x[25]     c2        730
    x[25]     c3        637
    x[25]     OBJ       -277
    x[26]     c1        921
    x[26]     c2        138
    x[26]     c3        596
    x[26]     OBJ       -246
    x[27]     c1        402
    x[27]     c2        812
    x[27]     c3        449
    x[27]     OBJ       -597
    x[28]     c1        421
    x[28]     c2        39
    x[28]     c3        821
    x[28]     OBJ       -343
    x[29]     c1        533
    x[29]     c2        404
    x[29]     c3        145
    x[29]     OBJ       -157
    x[30]     c1        823
    x[30]     c2        271
    x[30]     c3        708
    x[30]     OBJ       -733
    x[31]     c1        453
    x[31]     c2        194
    x[31]     c3        824
    x[31]     OBJ       -66
    x[32]     c1        125
    x[32]     c2        733
    x[32]     c3        862
    x[32]     OBJ       -332
    x[33]     c1        79
    x[33]     c2        88
    x[33]     c3        402
    x[33]     OBJ       -185
    x[34]     c1        264
    x[34]     c2        260
    x[34]     c3        812
    x[34]     OBJ       -37
    x[35]     c1        90
    x[35]     c2        951
    x[35]     c3        266
    x[35]     OBJ       -271
    x[36]     c1        30
    x[36]     c2        612
    x[36]     c3        119
    x[36]     OBJ       -696
    x[37]     c1        692
    x[37]     c2        578
    x[37]     c3        639
    x[37]     OBJ       -847
    x[38]     c1        75
    x[38]     c2        792
    x[38]     c3        94
    x[38]     OBJ       -994
    x[39]     c1        349
    x[39]     c2        738
    x[39]     c3        371
    x[39]     OBJ       -591
    x[40]     c1        810
    x[40]     c2        45
    x[40]     c3        693
    x[40]     OBJ       -163
    x[41]     c1        214
    x[41]     c2        659
    x[41]     c3        229
    x[41]     OBJ       -195
    x[42]     c1        987
    x[42]     c2        973
    x[42]     c3        718
    x[42]     OBJ       -867
    x[43]     c1        342
    x[43]     c2        147
    x[43]     c3        716
    x[43]     OBJ       -688
    x[44]     c1        361
    x[44]     c2        85
    x[44]     c3        657
    x[44]     OBJ       -554
    x[45]     c1        482
    x[45]     c2        883
    x[45]     c3        67
    x[45]     OBJ       -870
    x[46]     c1        664
    x[46]     c2        931
    x[46]     c3        661
    x[46]     OBJ       -800
    x[47]     c1        392
    x[47]     c2        910
    x[47]     c3        812
    x[47]     OBJ       -691
    x[48]     c1        242
    x[48]     c2        473
    x[48]     c3        441
    x[48]     OBJ       -587
    x[49]     c1        979
    x[49]     c2        250
    x[49]     c3        59
    x[49]     OBJ       -777
    x[50]     c1        740
    x[50]     c2        400
    x[50]     c3        969
    x[50]     OBJ       -409
RHS
    rhs       c1        11010
    rhs       c2        12317
    rhs       c3        12373
RANGES
BOUNDS
 BV bounds    x[1]
 BV bounds    x[2]
 BV bounds    x[3]
 BV bounds    x[4]
 BV bounds    x[5]
 BV bounds    x[6]
 BV bounds    x[7]
 BV bounds    x[8]
 BV bounds    x[9]
 BV bounds    x[10]
 BV bounds    x[11]
 BV bounds    x[12]
 BV bounds    x[13]
 BV bounds    x[14]
 BV bounds    x[15]
 BV bounds    x[16]
 BV bounds    x[17]
 BV bounds    x[18]
 BV bounds    x[19]
 BV bounds    x[20]
 BV bounds    x[21]
 BV bounds    x[22]
 BV bounds    x[23]
 BV bounds    x[24]
 BV bounds    x[25]
 BV bounds    x[26]
 BV bounds    x[27]
 BV bounds    x[28]
 BV bounds    x[29]
 BV bounds    x[30]
 BV bounds    x[31]
 BV bounds    x[32]
 BV bounds    x[33]
 BV bounds    x[34]
 BV bounds    x[35]
 BV bounds    x[36]
 BV bounds    x[37]
 BV bounds    x[38]
 BV bounds    x[39]
 BV bounds    x[40]
 BV bounds    x[41]
 BV bounds    x[42]
 BV bounds    x[43]
 BV bounds    x[44]
 BV bounds    x[45]
 BV bounds    x[46]
 BV bounds    x[47]
 BV bounds    x[48]
 BV bounds    x[49]
 BV bounds    x[50]
ENDATA
